####################################################################### 
# 
# This file contains crystal structure data downloaded from the 
# Cambridge Structural Database (CSD) hosted by the Cambridge 
# Crystallographic Data Centre (CCDC).
# 
# Full information about CCDC data access policies and citation 
# guidelines are available at http://www.ccdc.cam.ac.uk/access/V1 
# 
# Audit and citation data items may have been added by the CCDC. 
# Please retain this information to preserve the provenance of 
# this file and to allow appropriate attribution of the data. 
# 
#######################################################################

data_a
_audit_block_doi                 10.5517/ccw2hzd
#TrackingRef 'dpqDy.cif'

_database_code_depnum_ccdc_archive 'CCDC 806774'
loop_
_citation_id
_citation_doi
_citation_year
1 10.1002/chem.201103816 2012
_audit_update_record             
;
2011-01-06 deposited with the CCDC.	2023-11-16 downloaded from the CCDC.
;
_audit_creation_method           SHELXL-97
_chemical_name_systematic        
;
?
;
_chemical_name_common            ?
_chemical_melting_point          ?
_chemical_formula_moiety         ?
_chemical_formula_sum            'C29 H29 Dy N4 O6 '
_chemical_formula_weight         692.06

loop_
_atom_type_symbol
_atom_type_description
_atom_type_scat_dispersion_real
_atom_type_scat_dispersion_imag
_atom_type_scat_source
C C 0.0033 0.0016 'International Tables Vol C Tables 4.2.6.8 and 6.1.1.4'
H H 0.0000 0.0000 'International Tables Vol C Tables 4.2.6.8 and 6.1.1.4'
Cl Cl 0.1484 0.1585 'International Tables Vol C Tables 4.2.6.8 and 6.1.1.4'
Dy Dy -0.1892 4.4098 'International Tables Vol C Tables 4.2.6.8 and 6.1.1.4'
N N 0.0061 0.0033 'International Tables Vol C Tables 4.2.6.8 and 6.1.1.4'
O O 0.0106 0.0060 'International Tables Vol C Tables 4.2.6.8 and 6.1.1.4'

_symmetry_cell_setting           triclinic
_symmetry_space_group_name_H-M   p-1

loop_
_symmetry_equiv_pos_as_xyz
'x, y, z'
'-x, -y, -z'

_cell_length_a                   9.4500(19)
_cell_length_b                   9.5380(19)
_cell_length_c                   16.081(3)
_cell_angle_alpha                100.18(3)
_cell_angle_beta                 92.40(3)
_cell_angle_gamma                99.50(3)
_cell_volume                     1403.3(5)
_cell_formula_units_Z            2
_cell_measurement_temperature    293(2)
_cell_measurement_reflns_used    ?
_cell_measurement_theta_min      ?
_cell_measurement_theta_max      ?

_exptl_crystal_description       prism
_exptl_crystal_colour            colorless
_exptl_crystal_size_max          0.3
_exptl_crystal_size_mid          0.25
_exptl_crystal_size_min          0.2
_exptl_crystal_density_meas      ?
_exptl_crystal_density_diffrn    1.597
_exptl_crystal_density_method    'not measured'
_exptl_crystal_F_000             656
_exptl_absorpt_coefficient_mu    2.710
_exptl_absorpt_correction_type   multi-scan
_exptl_absorpt_correction_T_min  0.448
_exptl_absorpt_correction_T_max  0.582
_exptl_absorpt_process_details   crystalclear

_exptl_special_details           
;
?
;

_diffrn_ambient_temperature      293(2)
_diffrn_radiation_wavelength     0.71073
_diffrn_radiation_type           MoK\a
_diffrn_radiation_source         'fine-focus sealed tube'
_diffrn_radiation_monochromator  graphite
_diffrn_measurement_device_type  'Bruker P4'
_diffrn_measurement_method       '\w scans'
_diffrn_detector_area_resol_mean ?
_diffrn_standards_number         ?
_diffrn_standards_interval_count ?
_diffrn_standards_interval_time  ?
_diffrn_standards_decay_%        ?
_diffrn_reflns_number            11597
_diffrn_reflns_av_R_equivalents  0.0807
_diffrn_reflns_av_sigmaI/netI    0.1062
_diffrn_reflns_limit_h_min       -11
_diffrn_reflns_limit_h_max       11
_diffrn_reflns_limit_k_min       -11
_diffrn_reflns_limit_k_max       11
_diffrn_reflns_limit_l_min       -19
_diffrn_reflns_limit_l_max       19
_diffrn_reflns_theta_min         3.07
_diffrn_reflns_theta_max         25.00
_reflns_number_total             4947
_reflns_number_gt                3857
_reflns_threshold_expression     >2sigma(I)

_computing_data_collection       'Bruker XSCANS'
_computing_cell_refinement       'Bruker XSCANS'
_computing_data_reduction        'Bruker SHELXTL'
_computing_structure_solution    'SHELXS-97 (Sheldrick, 1990)'
_computing_structure_refinement  'SHELXL-97 (Sheldrick, 1997)'
_computing_molecular_graphics    'Bruker SHELXTL'
_computing_publication_material  'Bruker SHELXTL'

_refine_special_details          
;
Refinement of F^2^ against ALL reflections. The weighted R-factor wR and
goodness of fit S are based on F^2^, conventional R-factors R are based
on F, with F set to zero for negative F^2^. The threshold expression of
F^2^ > 2sigma(F^2^) is used only for calculating R-factors(gt) etc. and is
not relevant to the choice of reflections for refinement. R-factors based
on F^2^ are statistically about twice as large as those based on F, and R-
factors based on ALL data will be even larger.
;

_refine_ls_structure_factor_coef Fsqd
_refine_ls_matrix_type           full
_refine_ls_weighting_scheme      calc
_refine_ls_weighting_details     
'calc w=1/[\s^2^(Fo^2^)+(0.0461P)^2^+0.3826P] where P=(Fo^2^+2Fc^2^)/3'
_atom_sites_solution_primary     direct
_atom_sites_solution_secondary   difmap
_atom_sites_solution_hydrogens   geom
_refine_ls_hydrogen_treatment    constr
_refine_ls_extinction_method     none
_refine_ls_extinction_coef       ?
_refine_ls_number_reflns         4918
_refine_ls_number_parameters     367
_refine_ls_number_restraints     0
_refine_ls_R_factor_all          0.1024
_refine_ls_R_factor_gt           0.0718
_refine_ls_wR_factor_ref         0.1306
_refine_ls_wR_factor_gt          0.1225
_refine_ls_goodness_of_fit_ref   1.178
_refine_ls_restrained_S_all      1.178
_refine_ls_shift/su_max          0.001
_refine_ls_shift/su_mean         0.000

loop_
_atom_site_label
_atom_site_type_symbol
_atom_site_fract_x
_atom_site_fract_y
_atom_site_fract_z
_atom_site_U_iso_or_equiv
_atom_site_adp_type
_atom_site_occupancy
_atom_site_symmetry_multiplicity
_atom_site_calc_flag
_atom_site_refinement_flags
_atom_site_disorder_assembly
_atom_site_disorder_group
Dy1 Dy -0.05773(5) 0.77492(5) 0.23305(3) 0.03665(17) Uani 1 1 d . . .
O1 O 0.0273(7) 0.8424(7) 0.1104(4) 0.0500(18) Uani 1 1 d . . .
O2 O 0.0506(7) 0.5886(7) 0.1674(4) 0.0474(17) Uani 1 1 d . . .
O3 O -0.2390(7) 0.5762(7) 0.2082(5) 0.059(2) Uani 1 1 d . . .
O4 O -0.2528(7) 0.8457(7) 0.1688(4) 0.0500(18) Uani 1 1 d . . .
O5 O -0.1846(7) 0.8582(7) 0.3507(4) 0.0488(17) Uani 1 1 d . . .
O6 O 0.0221(7) 0.6823(7) 0.3464(4) 0.0506(18) Uani 1 1 d . . .
N1 N 0.2126(7) 0.8825(8) 0.2730(5) 0.0389(19) Uani 1 1 d . . .
N2 N 0.0141(7) 1.0537(8) 0.2657(5) 0.0385(19) Uani 1 1 d . . .
N3 N 0.5896(8) 1.2963(10) 0.3571(6) 0.060(3) Uani 1 1 d . . .
N4 N 0.3834(9) 1.4776(9) 0.3492(6) 0.061(3) Uani 1 1 d . . .
C1 C 0.3094(10) 0.7960(11) 0.2765(6) 0.046(3) Uani 1 1 d . . .
H1 H 0.2776 0.6965 0.2672 0.055 Uiso 1 1 calc R . .
C2 C 0.4549(10) 0.8482(11) 0.2933(6) 0.049(3) Uani 1 1 d . . .
H2 H 0.5193 0.7842 0.2929 0.058 Uiso 1 1 calc R . .
C3 C 0.5031(10) 0.9910(12) 0.3100(6) 0.048(3) Uani 1 1 d . . .
H3 H 0.6011 1.0267 0.3211 0.058 Uiso 1 1 calc R . .
C4 C 0.4044(10) 1.0867(10) 0.3108(6) 0.039(2) Uani 1 1 d . . .
C5 C 0.4476(10) 1.2416(11) 0.3326(6) 0.044(2) Uani 1 1 d . . .
C6 C 0.6210(13) 1.4383(14) 0.3771(8) 0.076(4) Uani 1 1 d . . .
H6 H 0.7157 1.4816 0.3944 0.091 Uiso 1 1 calc R . .
C7 C 0.5184(13) 1.5256(13) 0.3734(8) 0.076(4) Uani 1 1 d . . .
H7 H 0.5480 1.6251 0.3891 0.091 Uiso 1 1 calc R . .
C8 C 0.3477(9) 1.3320(10) 0.3288(6) 0.043(2) Uani 1 1 d . . .
C9 C 0.1971(9) 1.2689(10) 0.3027(6) 0.037(2) Uani 1 1 d . . .
C10 C 0.0917(10) 1.3549(10) 0.2947(6) 0.045(3) Uani 1 1 d . . .
H10 H 0.1166 1.4552 0.3054 0.054 Uiso 1 1 calc R . .
C11 C -0.0480(10) 1.2897(11) 0.2709(6) 0.048(3) Uani 1 1 d . . .
H11 H -0.1188 1.3440 0.2626 0.058 Uiso 1 1 calc R . .
C12 C -0.0802(10) 1.1418(12) 0.2597(6) 0.050(3) Uani 1 1 d . . .
H12 H -0.1762 1.0991 0.2468 0.060 Uiso 1 1 calc R . .
C13 C 0.1535(9) 1.1204(10) 0.2862(6) 0.037(2) Uani 1 1 d . . .
C14 C 0.2596(9) 1.0266(10) 0.2894(6) 0.034(2) Uani 1 1 d . . .
C15 C -0.2689(12) 0.9403(14) 0.4827(7) 0.076(4) Uani 1 1 d . . .
H15A H -0.2885 1.0204 0.4581 0.114 Uiso 1 1 calc R . .
H15B H -0.2226 0.9757 0.5385 0.114 Uiso 1 1 calc R . .
H15C H -0.3575 0.8766 0.4862 0.114 Uiso 1 1 calc R . .
C16 C -0.1729(10) 0.8601(11) 0.4290(6) 0.047(3) Uani 1 1 d . . .
C17 C -0.0729(11) 0.7921(12) 0.4684(6) 0.059(3) Uani 1 1 d . . .
H17 H -0.0691 0.8021 0.5270 0.071 Uiso 1 1 calc R . .
C18 C 0.0185(11) 0.7127(11) 0.4254(7) 0.051(3) Uani 1 1 d . . .
C19 C 0.1265(13) 0.6544(14) 0.4765(7) 0.081(4) Uani 1 1 d . . .
H19A H 0.1049 0.5506 0.4654 0.121 Uiso 1 1 calc R . .
H19B H 0.1211 0.6900 0.5357 0.121 Uiso 1 1 calc R . .
H19C H 0.2217 0.6857 0.4606 0.121 Uiso 1 1 calc R . .
C20 C 0.1756(11) 0.4269(12) 0.0891(7) 0.064(3) Uani 1 1 d . . .
H20A H 0.2605 0.4353 0.1259 0.096 Uiso 1 1 calc R . .
H20B H 0.1989 0.4058 0.0312 0.096 Uiso 1 1 calc R . .
H20C H 0.1037 0.3501 0.1002 0.096 Uiso 1 1 calc R . .
C21 C 0.1200(10) 0.5642(11) 0.1044(7) 0.049(3) Uani 1 1 d . . .
C22 C 0.1513(10) 0.6609(13) 0.0483(7) 0.055(3) Uani 1 1 d . . .
H22 H 0.2064 0.6343 0.0035 0.066 Uiso 1 1 calc R . .
C23 C 0.1058(11) 0.7925(12) 0.0550(7) 0.052(3) Uani 1 1 d . . .
C24 C -0.3521(10) 0.5387(11) 0.1576(6) 0.045(3) Uani 1 1 d . . .
C25 C -0.4122(11) 0.6303(12) 0.1150(7) 0.055(3) Uani 1 1 d . . .
H25 H -0.4903 0.5897 0.0762 0.066 Uiso 1 1 calc R . .
C26 C -0.3653(10) 0.7783(12) 0.1255(6) 0.049(3) Uani 1 1 d . . .
C27 C 0.1516(14) 0.8875(14) -0.0089(8) 0.085(4) Uani 1 1 d . . .
H27A H 0.0678 0.9043 -0.0388 0.127 Uiso 1 1 calc R . .
H27B H 0.2098 0.8400 -0.0484 0.127 Uiso 1 1 calc R . .
H27C H 0.2060 0.9782 0.0201 0.127 Uiso 1 1 calc R . .
C28 C -0.4515(11) 0.8702(13) 0.0849(7) 0.076(4) Uani 1 1 d . . .
H28A H -0.4445 0.9628 0.1214 0.113 Uiso 1 1 calc R . .
H28B H -0.5504 0.8234 0.0759 0.113 Uiso 1 1 calc R . .
H28C H -0.4147 0.8833 0.0316 0.113 Uiso 1 1 calc R . .
C29 C -0.4182(12) 0.3801(11) 0.1438(7) 0.065(3) Uani 1 1 d . . .
H29A H -0.4381 0.3431 0.0842 0.098 Uiso 1 1 calc R . .
H29B H -0.5061 0.3688 0.1717 0.098 Uiso 1 1 calc R . .
H29C H -0.3523 0.3277 0.1667 0.098 Uiso 1 1 calc R . .

loop_
_atom_site_aniso_label
_atom_site_aniso_U_11
_atom_site_aniso_U_22
_atom_site_aniso_U_33
_atom_site_aniso_U_23
_atom_site_aniso_U_13
_atom_site_aniso_U_12
Dy1 0.0324(3) 0.0385(3) 0.0390(3) 0.0086(2) 0.00162(19) 0.00482(19)
O1 0.055(4) 0.050(4) 0.051(4) 0.017(4) 0.011(4) 0.016(4)
O2 0.051(4) 0.042(4) 0.050(4) 0.009(3) 0.016(4) 0.007(3)
O3 0.041(4) 0.051(5) 0.080(5) 0.020(4) -0.011(4) -0.007(4)
O4 0.037(4) 0.055(5) 0.057(4) 0.015(4) -0.005(3) 0.001(3)
O5 0.046(4) 0.064(5) 0.041(4) 0.010(4) 0.010(3) 0.021(4)
O6 0.054(4) 0.058(5) 0.042(4) 0.012(4) -0.001(4) 0.011(4)
N1 0.033(4) 0.043(5) 0.044(5) 0.011(4) 0.004(4) 0.012(4)
N2 0.032(4) 0.040(5) 0.047(5) 0.011(4) -0.001(4) 0.016(4)
N3 0.032(5) 0.066(7) 0.077(7) 0.021(5) -0.016(5) -0.006(5)
N4 0.048(5) 0.040(6) 0.086(7) 0.013(5) -0.021(5) -0.007(4)
C1 0.048(6) 0.036(6) 0.054(6) 0.005(5) 0.000(5) 0.012(5)
C2 0.044(6) 0.049(7) 0.060(7) 0.013(6) 0.004(5) 0.024(5)
C3 0.026(5) 0.065(8) 0.055(7) 0.019(6) 0.008(5) 0.005(5)
C4 0.042(6) 0.032(6) 0.046(6) 0.015(5) 0.002(5) 0.007(5)
C5 0.042(6) 0.048(6) 0.046(6) 0.020(5) 0.005(5) 0.005(5)
C6 0.059(8) 0.056(8) 0.095(10) 0.012(7) -0.035(7) -0.027(7)
C7 0.068(8) 0.043(7) 0.104(10) 0.013(7) -0.035(8) -0.016(7)
C8 0.034(5) 0.032(6) 0.057(6) 0.010(5) -0.012(5) -0.009(5)
C9 0.039(5) 0.037(6) 0.041(6) 0.018(5) 0.000(5) 0.008(5)
C10 0.054(6) 0.029(6) 0.050(6) 0.003(5) -0.011(5) 0.007(5)
C11 0.042(6) 0.044(7) 0.062(7) 0.003(6) -0.003(5) 0.022(5)
C12 0.031(5) 0.059(7) 0.058(7) 0.009(6) -0.005(5) 0.004(5)
C13 0.033(5) 0.044(6) 0.038(5) 0.016(5) 0.007(4) 0.010(5)
C14 0.031(5) 0.033(5) 0.038(5) 0.008(5) 0.007(4) 0.000(4)
C15 0.061(7) 0.115(11) 0.049(7) 0.002(7) 0.007(6) 0.022(8)
C16 0.048(6) 0.052(7) 0.036(6) 0.002(5) -0.004(5) 0.003(5)
C17 0.066(7) 0.087(9) 0.031(6) 0.010(6) 0.005(6) 0.029(7)
C18 0.046(6) 0.051(7) 0.057(7) 0.020(6) 0.000(6) 0.003(5)
C19 0.091(9) 0.093(10) 0.064(8) 0.016(7) -0.010(7) 0.036(8)
C20 0.060(7) 0.080(9) 0.059(7) 0.018(7) 0.023(6) 0.027(7)
C21 0.043(6) 0.054(7) 0.045(6) 0.002(6) -0.004(5) 0.008(5)
C22 0.044(6) 0.074(8) 0.051(7) 0.022(6) 0.017(5) 0.008(6)
C23 0.045(6) 0.061(8) 0.052(7) 0.022(6) 0.002(6) 0.007(6)
C24 0.037(6) 0.047(7) 0.048(6) 0.006(5) 0.014(5) 0.001(5)
C25 0.046(6) 0.057(8) 0.055(7) 0.004(6) -0.005(5) -0.001(6)
C26 0.033(6) 0.068(8) 0.044(6) 0.006(6) 0.002(5) 0.007(6)
C27 0.092(9) 0.095(10) 0.090(9) 0.055(8) 0.050(8) 0.030(8)
C28 0.063(7) 0.082(9) 0.080(9) 0.037(8) -0.029(7) -0.008(7)
C29 0.063(7) 0.051(7) 0.072(8) 0.002(6) -0.007(6) -0.002(6)

_geom_special_details            
;
All esds (except the esd in the dihedral angle between two l.s. planes)
are estimated using the full covariance matrix. The cell esds are taken
into account individually in the estimation of esds in distances, angles
and torsion angles; correlations between esds in cell parameters are only
used when they are defined by crystal symmetry. An approximate (isotropic)
treatment of cell esds is used for estimating esds involving l.s. planes.
;

loop_
_geom_bond_atom_site_label_1
_geom_bond_atom_site_label_2
_geom_bond_distance
_geom_bond_site_symmetry_2
_geom_bond_publ_flag
Dy1 O3 2.300(7) . ?
Dy1 O2 2.312(6) . ?
Dy1 O6 2.312(6) . ?
Dy1 O1 2.316(7) . ?
Dy1 O4 2.328(6) . ?
Dy1 O5 2.371(6) . ?
Dy1 N2 2.586(7) . ?
Dy1 N1 2.599(7) . ?
O1 C23 1.262(11) . ?
O2 C21 1.238(11) . ?
O3 C24 1.276(11) . ?
O4 C26 1.259(11) . ?
O5 C16 1.255(11) . ?
O6 C18 1.255(11) . ?
N1 C1 1.335(11) . ?
N1 C14 1.348(11) . ?
N2 C12 1.334(11) . ?
N2 C13 1.364(11) . ?
N3 C6 1.316(14) . ?
N3 C5 1.372(11) . ?
N4 C7 1.301(13) . ?
N4 C8 1.351(12) . ?
C1 C2 1.381(13) . ?
C1 H1 0.9300 . ?
C2 C3 1.338(13) . ?
C2 H2 0.9300 . ?
C3 C4 1.408(12) . ?
C3 H3 0.9300 . ?
C4 C14 1.397(12) . ?
C4 C5 1.441(13) . ?
C5 C8 1.386(13) . ?
C6 C7 1.384(16) . ?
C6 H6 0.9300 . ?
C7 H7 0.9300 . ?
C8 C9 1.463(12) . ?
C9 C13 1.383(12) . ?
C9 C10 1.406(12) . ?
C10 C11 1.371(12) . ?
C10 H10 0.9300 . ?
C11 C12 1.370(13) . ?
C11 H11 0.9300 . ?
C12 H12 0.9300 . ?
C13 C14 1.454(12) . ?
C15 C16 1.489(13) . ?
C15 H15A 0.9600 . ?
C15 H15B 0.9600 . ?
C15 H15C 0.9600 . ?
C16 C17 1.419(14) . ?
C17 C18 1.371(14) . ?
C17 H17 0.9300 . ?
C18 C19 1.518(14) . ?
C19 H19A 0.9600 . ?
C19 H19B 0.9600 . ?
C19 H19C 0.9600 . ?
C20 C21 1.476(14) . ?
C20 H20A 0.9600 . ?
C20 H20B 0.9600 . ?
C20 H20C 0.9600 . ?
C21 C22 1.408(14) . ?
C22 C23 1.381(14) . ?
C22 H22 0.9300 . ?
C23 C27 1.516(14) . ?
C24 C25 1.379(14) . ?
C24 C29 1.512(13) . ?
C25 C26 1.385(14) . ?
C25 H25 0.9300 . ?
C26 C28 1.500(14) . ?
C27 H27A 0.9600 . ?
C27 H27B 0.9600 . ?
C27 H27C 0.9600 . ?
C28 H28A 0.9600 . ?
C28 H28B 0.9600 . ?
C28 H28C 0.9600 . ?
C29 H29A 0.9600 . ?
C29 H29B 0.9600 . ?
C29 H29C 0.9600 . ?

loop_
_geom_angle_atom_site_label_1
_geom_angle_atom_site_label_2
_geom_angle_atom_site_label_3
_geom_angle
_geom_angle_site_symmetry_1
_geom_angle_site_symmetry_3
_geom_angle_publ_flag
O3 Dy1 O2 75.7(2) . . ?
O3 Dy1 O6 86.4(2) . . ?
O2 Dy1 O6 77.5(2) . . ?
O3 Dy1 O1 113.4(2) . . ?
O2 Dy1 O1 73.6(2) . . ?
O6 Dy1 O1 138.9(2) . . ?
O3 Dy1 O4 73.7(2) . . ?
O2 Dy1 O4 122.4(2) . . ?
O6 Dy1 O4 145.4(2) . . ?
O1 Dy1 O4 75.7(2) . . ?
O3 Dy1 O5 85.3(2) . . ?
O2 Dy1 O5 145.4(2) . . ?
O6 Dy1 O5 72.6(2) . . ?
O1 Dy1 O5 141.0(2) . . ?
O4 Dy1 O5 77.7(2) . . ?
O3 Dy1 N2 147.9(2) . . ?
O2 Dy1 N2 134.2(2) . . ?
O6 Dy1 N2 109.1(2) . . ?
O1 Dy1 N2 73.5(2) . . ?
O4 Dy1 N2 78.2(2) . . ?
O5 Dy1 N2 73.5(2) . . ?
O3 Dy1 N1 148.8(2) . . ?
O2 Dy1 N1 78.8(2) . . ?
O6 Dy1 N1 70.6(2) . . ?
O1 Dy1 N1 75.5(2) . . ?
O4 Dy1 N1 136.4(2) . . ?
O5 Dy1 N1 106.7(2) . . ?
N2 Dy1 N1 62.6(2) . . ?
C23 O1 Dy1 134.8(6) . . ?
C21 O2 Dy1 137.1(7) . . ?
C24 O3 Dy1 133.6(7) . . ?
C26 O4 Dy1 134.0(7) . . ?
C16 O5 Dy1 135.5(7) . . ?
C18 O6 Dy1 135.2(7) . . ?
C1 N1 C14 118.0(8) . . ?
C1 N1 Dy1 120.7(6) . . ?
C14 N1 Dy1 121.2(6) . . ?
C12 N2 C13 115.4(8) . . ?
C12 N2 Dy1 122.7(6) . . ?
C13 N2 Dy1 121.8(6) . . ?
C6 N3 C5 114.9(10) . . ?
C7 N4 C8 114.5(9) . . ?
N1 C1 C2 122.7(9) . . ?
N1 C1 H1 118.7 . . ?
C2 C1 H1 118.7 . . ?
C3 C2 C1 120.0(9) . . ?
C3 C2 H2 120.0 . . ?
C1 C2 H2 120.0 . . ?
C2 C3 C4 119.4(9) . . ?
C2 C3 H3 120.3 . . ?
C4 C3 H3 120.3 . . ?
C14 C4 C3 117.6(8) . . ?
C14 C4 C5 119.9(8) . . ?
C3 C4 C5 122.5(9) . . ?
N3 C5 C8 121.3(9) . . ?
N3 C5 C4 118.2(9) . . ?
C8 C5 C4 120.6(8) . . ?
N3 C6 C7 122.4(10) . . ?
N3 C6 H6 118.8 . . ?
C7 C6 H6 118.8 . . ?
N4 C7 C6 124.4(11) . . ?
N4 C7 H7 117.8 . . ?
C6 C7 H7 117.8 . . ?
N4 C8 C5 122.5(8) . . ?
N4 C8 C9 118.1(9) . . ?
C5 C8 C9 119.4(8) . . ?
C13 C9 C10 117.7(8) . . ?
C13 C9 C8 120.2(8) . . ?
C10 C9 C8 122.1(8) . . ?
C11 C10 C9 119.5(9) . . ?
C11 C10 H10 120.3 . . ?
C9 C10 H10 120.3 . . ?
C12 C11 C10 117.9(9) . . ?
C12 C11 H11 121.0 . . ?
C10 C11 H11 121.0 . . ?
N2 C12 C11 125.7(9) . . ?
N2 C12 H12 117.1 . . ?
C11 C12 H12 117.1 . . ?
N2 C13 C9 123.7(8) . . ?
N2 C13 C14 116.6(8) . . ?
C9 C13 C14 119.7(8) . . ?
N1 C14 C4 122.2(8) . . ?
N1 C14 C13 117.8(8) . . ?
C4 C14 C13 120.0(8) . . ?
C16 C15 H15A 109.5 . . ?
C16 C15 H15B 109.5 . . ?
H15A C15 H15B 109.5 . . ?
C16 C15 H15C 109.5 . . ?
H15A C15 H15C 109.5 . . ?
H15B C15 H15C 109.5 . . ?
O5 C16 C17 123.7(9) . . ?
O5 C16 C15 117.4(9) . . ?
C17 C16 C15 118.9(9) . . ?
C18 C17 C16 124.1(9) . . ?
C18 C17 H17 118.0 . . ?
C16 C17 H17 118.0 . . ?
O6 C18 C17 126.2(10) . . ?
O6 C18 C19 115.7(10) . . ?
C17 C18 C19 118.2(10) . . ?
C18 C19 H19A 109.5 . . ?
C18 C19 H19B 109.5 . . ?
H19A C19 H19B 109.5 . . ?
C18 C19 H19C 109.5 . . ?
H19A C19 H19C 109.5 . . ?
H19B C19 H19C 109.5 . . ?
C21 C20 H20A 109.5 . . ?
C21 C20 H20B 109.5 . . ?
H20A C20 H20B 109.5 . . ?
C21 C20 H20C 109.5 . . ?
H20A C20 H20C 109.5 . . ?
H20B C20 H20C 109.5 . . ?
O2 C21 C22 123.9(10) . . ?
O2 C21 C20 117.6(10) . . ?
C22 C21 C20 118.6(10) . . ?
C23 C22 C21 124.6(10) . . ?
C23 C22 H22 117.7 . . ?
C21 C22 H22 117.7 . . ?
O1 C23 C22 125.5(10) . . ?
O1 C23 C27 115.8(10) . . ?
C22 C23 C27 118.7(10) . . ?
O3 C24 C25 124.8(9) . . ?
O3 C24 C29 115.3(10) . . ?
C25 C24 C29 119.9(10) . . ?
C24 C25 C26 125.0(10) . . ?
C24 C25 H25 117.5 . . ?
C26 C25 H25 117.5 . . ?
O4 C26 C25 124.5(10) . . ?
O4 C26 C28 115.2(10) . . ?
C25 C26 C28 120.2(10) . . ?
C23 C27 H27A 109.5 . . ?
C23 C27 H27B 109.5 . . ?
H27A C27 H27B 109.5 . . ?
C23 C27 H27C 109.5 . . ?
H27A C27 H27C 109.5 . . ?
H27B C27 H27C 109.5 . . ?
C26 C28 H28A 109.5 . . ?
C26 C28 H28B 109.5 . . ?
H28A C28 H28B 109.5 . . ?
C26 C28 H28C 109.5 . . ?
H28A C28 H28C 109.5 . . ?
H28B C28 H28C 109.5 . . ?
C24 C29 H29A 109.5 . . ?
C24 C29 H29B 109.5 . . ?
H29A C29 H29B 109.5 . . ?
C24 C29 H29C 109.5 . . ?
H29A C29 H29C 109.5 . . ?
H29B C29 H29C 109.5 . . ?

_diffrn_measured_fraction_theta_max 0.994
_diffrn_reflns_theta_full        25.00
_diffrn_measured_fraction_theta_full 0.994
_refine_diff_density_max         0.633
_refine_diff_density_min         -0.855
_refine_diff_density_rms         0.149



